50
6973

480 805
258 747
603 423
312 39
358 333
368 258
478 335
7 401
306 903
590 195
481 550
809 14
809 942
858 718
771 837
844 193
73 272
542 775
748 52
287 629
604 793
170 103
808 724
763 918
558 904
876 652
427 205
993 478
584 208
225 831
114 26
265 944
717 986
376 528
644 980
280 345
404 320
830 857
70 331
996 155
274 501
986 6
195 168
505 696
823 59
554 671
966 892
76 448
61 671
443 832
